% seed = 0

mint = 27;
% maxt = 126;

nActs = 62;
dur = [0,3,3,1,2,1,2,2,3,2,2,2,1,3,2,5,4,1,1,1,2,1,1,1,3,2,2,2,1,2,3,1,3,2,3,3,1,2,3,4,2,2,2,3,3,2,2,2,3,1,3,1,3,1,4,3,2,1,1,1,1,0];

nSkills = 9;
sreq = [| 0,0,0,0,0,0,0,0,0,
	| 0,0,0,0,0,1,0,0,0,
	| 0,0,0,1,0,0,0,1,0,
	| 0,0,0,0,0,0,0,1,0,
	| 0,0,0,0,1,1,1,1,2,
	| 0,0,0,0,0,1,0,1,0,
	| 0,0,0,0,0,0,1,0,0,
	| 0,0,0,0,1,0,0,0,0,
	| 1,0,1,0,0,1,0,0,0,
	| 0,0,1,0,0,0,0,3,1,
	| 0,0,1,0,0,0,0,1,3,
	| 0,1,0,0,0,2,0,0,1,
	| 0,0,1,0,0,0,0,0,1,
	| 0,0,1,0,0,1,2,1,0,
	| 0,0,1,0,0,1,0,0,0,
	| 0,0,0,0,0,2,0,1,0,
	| 0,0,0,1,0,1,0,1,3,
	| 1,0,0,0,0,0,0,0,0,
	| 0,0,2,0,0,2,1,0,1,
	| 0,0,0,1,0,1,0,1,0,
	| 0,0,1,0,0,1,0,0,0,
	| 0,0,0,0,0,1,0,0,0,
	| 0,0,1,0,1,0,1,1,1,
	| 0,0,0,0,0,0,0,3,0,
	| 0,0,0,0,1,1,0,1,1,
	| 0,0,2,0,0,0,0,1,0,
	| 0,0,1,1,1,1,1,0,1,
	| 1,0,1,1,0,2,0,1,0,
	| 0,0,0,0,0,0,0,1,0,
	| 0,0,1,0,0,1,0,0,1,
	| 0,0,2,1,0,0,0,1,2,
	| 1,0,0,0,0,0,1,2,0,
	| 0,0,0,0,1,0,0,2,0,
	| 0,1,0,0,0,0,0,1,0,
	| 0,1,0,1,2,1,0,0,1,
	| 1,0,0,0,0,0,0,0,1,
	| 0,0,0,0,0,1,0,0,0,
	| 0,0,0,0,1,0,0,1,0,
	| 0,0,0,0,2,2,0,0,1,
	| 0,0,0,0,1,0,0,0,0,
	| 0,1,1,0,0,0,0,1,1,
	| 1,0,0,1,0,2,1,0,1,
	| 1,0,0,0,0,1,0,0,1,
	| 0,0,0,0,0,0,0,1,0,
	| 0,0,0,0,1,1,0,1,0,
	| 0,0,0,0,0,1,0,2,1,
	| 0,0,1,1,0,0,0,0,1,
	| 0,0,0,0,0,0,0,0,2,
	| 0,0,0,0,1,1,1,0,0,
	| 0,0,0,0,0,2,1,0,0,
	| 0,0,1,1,1,0,0,1,0,
	| 0,0,2,0,0,1,0,1,0,
	| 0,1,0,1,0,0,1,1,0,
	| 0,0,1,1,0,1,0,3,0,
	| 0,0,0,0,0,2,0,1,0,
	| 0,0,0,0,1,1,0,2,2,
	| 0,0,0,0,0,1,1,0,1,
	| 0,0,1,0,0,0,1,0,1,
	| 0,0,0,1,0,0,0,1,0,
	| 0,1,0,0,0,1,0,1,0,
	| 0,0,0,1,0,0,0,1,2,
	| 0,0,0,0,0,0,0,0,0, |];

% SumOfsreq = 199;

nResources = 19;
mastery = [| false,false,false,false,false,false,false,false,true,
	| false,false,false,false,false,false,false,true,true,
	| true,true,true,false,false,false,false,false,true,
	| false,true,true,false,false,false,false,false,false,
	| false,false,true,false,false,false,false,false,false,
	| false,false,false,false,false,false,true,true,true,
	| false,false,false,false,false,true,false,false,false,
	| false,false,false,true,true,true,false,false,false,
	| false,false,false,false,false,false,false,true,true,
	| false,false,false,false,false,true,true,true,true,
	| false,false,false,false,true,true,false,false,false,
	| false,false,false,false,false,false,false,true,true,
	| false,false,false,false,false,false,false,false,true,
	| false,false,false,false,false,false,false,false,true,
	| false,false,false,true,true,true,true,true,true,
	| false,false,false,true,true,true,false,false,false,
	| false,true,true,false,true,true,true,true,true,
	| false,false,false,true,true,true,false,false,false,
	| false,false,false,false,false,false,false,false,true, |];

nPrecs = 93;
pred = [1,1,1,2,2,2,3,3,3,4,4,5,5,5,6,6,6,7,7,8,8,8,9,9,9,10,11,11,11,12,13,14,15,15,15,16,17,18,19,19,20,20,21,21,22,22,22,23,24,25,25,26,26,27,28,29,30,31,32,33,33,34,35,35,36,37,38,39,39,40,41,42,43,44,45,45,46,47,48,48,49,50,51,52,53,54,55,56,57,58,59,60,61];
succ = [2,3,4,9,28,8,19,13,6,50,5,12,7,24,11,61,48,33,26,17,27,14,10,30,15,23,40,21,32,18,36,57,22,47,16,46,25,52,20,47,51,38,43,28,34,37,32,53,49,36,39,41,53,29,39,61,31,35,55,42,45,44,43,48,51,59,46,60,54,46,42,56,56,45,55,48,55,53,49,51,52,58,57,56,60,57,59,60,59,61,62,62,62];

nUnrels = 1346;
unpred = [2,2,2,2,2,2,2,2,2,2,2,2,2,2,2,2,2,2,2,2,2,3,3,3,3,3,3,3,3,3,3,3,3,3,3,3,3,3,3,3,3,3,3,3,3,3,3,3,3,3,3,3,4,4,4,4,4,4,4,4,4,4,4,4,4,4,4,4,4,4,4,4,4,4,4,4,4,4,4,4,4,4,4,4,4,4,5,5,5,5,5,5,5,5,5,5,5,5,5,5,5,5,5,5,5,5,5,5,5,5,5,5,5,5,5,5,5,5,5,5,5,5,5,6,6,6,6,6,6,6,6,6,6,6,6,6,6,6,6,6,6,6,6,6,6,6,6,6,6,6,6,6,6,6,6,6,6,6,6,7,7,7,7,7,7,7,7,7,7,7,7,7,7,7,7,7,7,7,7,7,7,7,7,7,7,7,7,7,7,7,7,7,7,7,7,7,7,7,8,8,8,8,8,8,8,8,8,8,8,8,8,8,8,8,8,8,8,8,8,8,8,8,8,8,8,8,8,8,8,8,8,8,8,8,8,8,8,8,9,9,9,9,9,9,9,9,9,9,9,9,9,9,9,9,9,9,9,9,9,9,9,9,9,9,10,10,10,10,10,10,10,10,10,10,10,10,10,10,10,10,10,10,10,10,10,10,10,10,10,10,10,10,10,10,10,10,10,10,10,10,10,10,10,10,10,10,10,10,10,10,10,10,11,11,11,11,11,11,11,11,11,11,11,11,11,11,11,11,11,11,11,11,11,11,11,11,11,11,11,11,11,11,11,11,11,11,11,11,11,12,12,12,12,12,12,12,12,12,12,12,12,12,12,12,12,12,12,12,12,12,12,12,12,12,12,12,12,12,12,12,12,12,12,12,12,12,12,12,12,12,12,12,12,12,13,13,13,13,13,13,13,13,13,13,13,13,13,13,13,13,13,13,13,13,13,13,13,13,13,13,13,13,13,13,13,13,13,13,13,13,13,13,13,13,13,13,13,13,14,14,14,14,14,14,14,14,14,14,14,14,14,14,14,14,14,14,14,14,14,14,14,14,14,14,14,14,14,14,14,14,14,14,14,14,14,14,14,14,14,14,14,14,14,15,15,15,15,15,15,15,15,15,15,15,15,15,15,15,15,15,15,15,15,15,15,15,15,15,15,15,16,16,16,16,16,16,16,16,16,16,16,16,16,16,16,16,16,16,16,16,16,16,16,16,16,16,16,16,16,16,16,16,16,16,16,16,16,16,16,16,16,16,17,17,17,17,17,17,17,17,17,17,17,17,17,17,17,17,17,17,17,17,17,17,17,17,17,17,17,17,17,17,17,17,17,17,17,17,18,18,18,18,18,18,18,18,18,18,18,18,18,18,18,18,18,18,18,18,18,18,18,18,18,18,18,18,18,18,18,18,18,18,18,18,18,18,18,18,19,19,19,19,19,19,19,19,19,19,19,19,19,19,19,19,19,19,19,19,19,19,19,19,19,19,19,19,19,19,19,19,20,20,20,20,20,20,20,20,20,20,20,20,20,20,20,20,20,20,20,20,20,20,20,20,20,20,20,20,20,20,20,20,20,20,20,21,21,21,21,21,21,21,21,21,21,21,21,21,21,21,21,21,21,21,21,21,21,21,21,21,21,21,21,21,21,21,21,22,22,22,22,22,22,22,22,22,22,22,22,22,22,22,22,22,22,22,22,22,22,22,22,22,23,23,23,23,23,23,23,23,23,23,23,23,23,23,23,23,23,23,23,23,23,23,23,23,23,23,23,23,23,23,23,23,23,23,23,23,24,24,24,24,24,24,24,24,24,24,24,24,24,24,24,24,24,24,24,24,24,24,24,24,24,24,24,24,24,24,24,24,24,25,25,25,25,25,25,25,25,25,25,25,25,25,25,25,25,25,25,25,25,25,25,25,25,25,25,25,25,25,26,26,26,26,26,26,26,26,26,26,26,26,26,26,26,26,26,26,26,26,26,26,26,26,26,26,26,26,26,26,27,27,27,27,27,27,27,27,27,27,27,27,27,27,27,27,27,27,27,27,27,27,27,27,27,27,27,27,27,27,27,27,28,28,28,28,28,28,28,28,28,28,28,28,28,28,28,28,28,28,28,28,28,28,28,28,28,28,28,28,29,29,29,29,29,29,29,29,29,29,29,29,29,29,29,29,29,29,29,29,29,29,29,29,29,29,29,29,29,29,29,30,30,30,30,30,30,30,30,30,30,30,30,30,30,30,30,30,30,30,30,31,31,31,31,31,31,31,31,31,31,31,31,31,31,31,31,31,31,31,31,32,32,32,32,32,32,32,32,32,32,32,32,32,32,32,32,32,32,32,32,32,32,32,32,32,32,32,33,33,33,33,33,33,33,33,33,33,33,33,33,33,33,33,33,34,34,34,34,34,34,34,34,34,34,34,34,34,34,34,34,35,35,35,35,35,35,35,35,35,35,35,35,35,35,35,35,35,36,36,36,36,36,36,36,36,36,36,36,36,36,36,36,36,36,36,36,36,36,36,37,37,37,37,37,37,37,37,37,37,37,37,37,37,37,37,37,37,37,37,37,37,37,38,38,38,38,38,38,38,38,38,38,38,38,38,38,38,38,38,38,38,38,39,39,39,39,39,39,39,39,39,39,39,39,39,39,39,39,39,39,40,40,40,40,40,40,40,40,40,40,40,40,40,40,40,40,40,40,41,41,41,41,41,41,41,41,41,41,41,41,41,41,41,41,41,42,42,42,42,42,42,42,42,42,42,42,42,42,42,42,42,42,43,43,43,43,43,43,43,43,43,43,43,43,43,43,43,43,44,44,44,44,44,44,44,45,45,45,45,45,45,45,46,46,46,46,46,46,46,46,46,46,46,46,46,47,47,47,47,47,47,47,47,47,47,47,47,48,48,48,48,48,48,49,49,49,49,49,49,49,49,49,50,50,50,50,50,50,50,50,50,51,51,51,51,51,51,51,51,52,52,52,52,52,52,52,53,53,53,53,53,53,53,54,54,54,54,54,55,55,55,55,55,56,56,56,56,57,57,57,58,58,59,59,60];
unsucc = [3,4,5,6,7,11,12,13,18,19,20,21,24,26,33,38,40,41,42,50,58,4,5,7,8,9,10,12,14,15,16,17,18,22,23,24,25,26,27,29,30,31,33,34,35,37,41,42,44,45,50,58,6,8,9,10,11,13,14,15,16,17,19,20,21,22,23,25,27,28,29,30,31,32,34,35,36,37,38,39,40,43,44,46,47,54,6,8,9,10,11,13,14,15,16,17,19,20,21,22,23,25,27,28,29,30,31,32,34,35,36,37,38,39,40,43,44,46,47,50,54,58,61,7,8,9,10,12,13,14,15,16,17,18,19,20,22,23,24,25,26,27,29,30,31,33,34,35,36,37,38,41,42,44,45,47,50,53,58,8,9,10,11,12,13,14,15,16,17,18,19,20,21,22,23,24,25,27,28,29,30,31,32,34,35,36,37,38,39,40,43,44,46,47,50,54,58,61,9,10,11,12,13,15,16,18,19,20,21,22,23,24,26,28,30,31,32,33,34,35,37,38,40,41,42,43,44,45,46,47,48,49,50,52,53,55,56,58,11,12,13,14,17,18,19,20,21,24,25,26,27,28,29,33,36,38,39,40,41,42,50,54,58,61,11,12,13,14,15,16,17,18,19,20,21,22,24,25,26,27,28,29,30,31,32,33,34,35,36,37,38,39,40,41,42,43,44,45,46,47,48,49,50,51,52,54,55,56,57,58,59,61,12,13,14,15,16,17,18,19,20,22,23,24,25,26,27,29,30,31,33,34,35,36,37,38,41,42,44,45,47,48,49,50,51,52,53,58,61,13,14,15,16,17,19,20,21,22,23,24,25,26,27,28,29,30,31,32,33,34,35,36,37,38,39,40,41,42,43,44,45,46,47,48,49,50,51,53,54,55,57,58,59,61,14,15,16,17,18,19,20,21,22,23,24,25,26,27,28,29,30,31,32,33,34,35,37,38,39,40,41,42,43,44,45,46,47,48,49,50,52,53,54,55,56,58,60,61,15,16,17,18,19,20,21,22,23,24,25,26,27,28,29,30,31,32,33,34,35,36,37,38,39,40,41,42,43,44,45,46,47,48,49,50,51,52,53,54,55,56,58,60,61,17,18,19,20,21,23,24,25,26,27,28,29,30,31,33,35,36,38,39,40,41,42,43,50,54,58,61,17,18,19,20,21,22,23,24,25,26,27,28,29,30,31,32,33,34,35,36,37,38,39,40,41,42,43,44,45,47,48,49,50,51,52,53,54,56,57,58,60,61,18,19,20,21,22,23,24,26,27,28,29,30,31,32,33,34,35,37,38,40,41,42,43,44,45,46,47,48,49,50,52,53,55,56,58,61,19,20,21,22,23,24,25,26,27,28,29,30,31,32,33,34,35,36,37,38,39,40,41,42,43,44,45,46,47,48,49,50,51,53,54,55,57,58,59,61,21,22,23,24,25,26,27,28,29,30,31,32,33,34,35,36,37,39,40,41,42,43,44,45,48,49,50,52,54,56,58,61,21,22,23,24,25,26,27,28,29,30,31,32,33,34,35,36,37,39,40,41,42,43,44,45,47,48,49,50,52,53,54,56,58,60,61,22,23,24,25,26,27,29,30,31,32,33,34,35,36,37,38,40,41,42,44,45,46,47,48,49,50,51,52,53,55,58,61,23,24,25,26,27,28,29,30,31,33,35,36,38,39,40,41,42,43,46,47,50,53,54,58,61,24,25,26,27,28,29,30,31,32,33,34,35,36,37,38,39,40,41,42,43,44,45,46,47,48,49,50,51,52,54,55,56,57,58,59,61,25,26,27,28,29,30,31,32,33,34,35,36,37,38,39,40,41,42,43,44,45,46,47,48,50,51,53,54,55,57,58,59,61,26,27,28,29,30,31,32,33,34,35,37,38,40,41,42,43,44,45,46,47,48,49,50,52,53,55,56,58,61,27,28,29,30,31,32,33,34,35,36,37,38,39,40,43,44,45,46,47,48,49,50,51,52,54,55,57,58,59,61,28,30,31,32,33,34,35,36,37,38,39,40,41,42,43,44,45,46,47,48,49,50,51,52,53,54,55,56,57,58,59,60,29,30,31,32,33,34,35,36,37,38,40,41,42,43,44,45,46,47,48,49,50,51,52,53,55,56,58,61,30,31,32,33,34,35,36,37,38,39,40,41,42,43,44,45,46,47,48,49,50,51,52,53,54,55,56,57,58,59,60,32,33,34,36,37,38,39,40,41,42,44,45,46,47,50,53,54,55,58,61,32,33,34,36,37,38,39,40,41,42,44,45,46,47,50,53,54,55,58,61,33,34,35,36,37,38,39,40,41,42,43,44,45,46,47,48,49,50,51,52,53,54,56,57,58,60,61,34,35,36,37,38,39,40,41,43,44,46,47,50,53,54,58,61,35,36,37,38,39,40,41,42,43,46,47,50,53,54,58,61,36,37,38,39,40,41,42,44,45,46,47,50,53,54,55,58,61,37,38,39,40,41,42,43,44,45,46,47,48,49,50,52,53,54,55,56,58,60,61,38,39,40,41,42,43,44,45,46,47,48,49,50,51,52,53,54,55,56,57,58,60,61,39,40,41,42,43,44,45,47,48,49,50,51,52,53,54,56,57,58,60,61,40,41,42,43,44,45,46,47,48,49,50,51,52,53,55,56,58,61,41,42,43,44,45,47,48,49,50,51,52,53,54,56,57,58,60,61,43,44,45,46,47,48,49,50,51,52,53,54,55,57,58,59,61,43,44,45,46,47,48,49,50,51,52,53,54,55,57,58,59,61,44,45,46,47,48,49,50,51,52,53,54,55,57,58,59,61,46,47,50,53,54,58,61,46,47,50,53,54,58,61,47,48,49,50,51,52,53,54,56,57,58,60,61,48,49,50,51,52,54,55,56,57,58,59,61,50,53,54,55,58,61,50,51,53,54,55,57,58,59,61,51,52,53,54,55,56,57,59,60,52,53,54,55,56,58,60,61,53,54,55,57,58,59,61,54,55,56,57,58,59,61,55,56,58,60,61,56,57,58,60,61,57,58,59,61,58,60,61,59,60,60,61,61];

USEFUL_RES = [{},
	{7,8,10,11,15,16,17,18},
	{2,6,8,9,10,12,15,16,17,18},
	{2,6,9,10,12,15,17},
	{1,2,3,6,7,8,9,10,11,12,13,14,15,16,17,18,19},
	{2,6,7,8,9,10,11,12,15,16,17,18},
	{6,10,15,17},
	{8,11,15,16,17,18},
	{3,4,5,7,8,10,11,15,16,17,18},
	{1,2,3,4,5,6,9,10,12,13,14,15,17,19},
	{1,2,3,4,5,6,9,10,12,13,14,15,17,19},
	{1,2,3,4,6,7,8,9,10,11,12,13,14,15,16,17,18,19},
	{1,2,3,4,5,6,9,10,12,13,14,15,17,19},
	{2,3,4,5,6,7,8,9,10,11,12,15,16,17,18},
	{3,4,5,7,8,10,11,15,16,17,18},
	{2,6,7,8,9,10,11,12,15,16,17,18},
	{1,2,3,6,7,8,9,10,11,12,13,14,15,16,17,18,19},
	{3},
	{1,2,3,4,5,6,7,8,9,10,11,12,13,14,15,16,17,18,19},
	{2,6,7,8,9,10,11,12,15,16,17,18},
	{3,4,5,7,8,10,11,15,16,17,18},
	{7,8,10,11,15,16,17,18},
	{1,2,3,4,5,6,8,9,10,11,12,13,14,15,16,17,18,19},
	{2,6,9,10,12,15,17},
	{1,2,3,6,7,8,9,10,11,12,13,14,15,16,17,18,19},
	{2,3,4,5,6,9,10,12,15,17},
	{1,2,3,4,5,6,7,8,9,10,11,12,13,14,15,16,17,18,19},
	{2,3,4,5,6,7,8,9,10,11,12,15,16,17,18},
	{2,6,9,10,12,15,17},
	{1,2,3,4,5,6,7,8,9,10,11,12,13,14,15,16,17,18,19},
	{1,2,3,4,5,6,8,9,10,12,13,14,15,16,17,18,19},
	{2,3,6,9,10,12,15,17},
	{2,6,8,9,10,11,12,15,16,17,18},
	{2,3,4,6,9,10,12,15,17},
	{1,2,3,4,6,7,8,9,10,11,12,13,14,15,16,17,18,19},
	{1,2,3,6,9,10,12,13,14,15,17,19},
	{7,8,10,11,15,16,17,18},
	{2,6,8,9,10,11,12,15,16,17,18},
	{1,2,3,6,7,8,9,10,11,12,13,14,15,16,17,18,19},
	{8,11,15,16,17,18},
	{1,2,3,4,5,6,9,10,12,13,14,15,17,19},
	{1,2,3,6,7,8,9,10,11,12,13,14,15,16,17,18,19},
	{1,2,3,6,7,8,9,10,11,12,13,14,15,16,17,18,19},
	{2,6,9,10,12,15,17},
	{2,6,7,8,9,10,11,12,15,16,17,18},
	{1,2,3,6,7,8,9,10,11,12,13,14,15,16,17,18,19},
	{1,2,3,4,5,6,8,9,10,12,13,14,15,16,17,18,19},
	{1,2,3,6,9,10,12,13,14,15,17,19},
	{6,7,8,10,11,15,16,17,18},
	{6,7,8,10,11,15,16,17,18},
	{2,3,4,5,6,8,9,10,11,12,15,16,17,18},
	{2,3,4,5,6,7,8,9,10,11,12,15,16,17,18},
	{2,3,4,6,8,9,10,12,15,16,17,18},
	{2,3,4,5,6,7,8,9,10,11,12,15,16,17,18},
	{2,6,7,8,9,10,11,12,15,16,17,18},
	{1,2,3,6,7,8,9,10,11,12,13,14,15,16,17,18,19},
	{1,2,3,6,7,8,9,10,11,12,13,14,15,16,17,18,19},
	{1,2,3,4,5,6,9,10,12,13,14,15,17,19},
	{2,6,8,9,10,12,15,16,17,18},
	{2,3,4,6,7,8,9,10,11,12,15,16,17,18},
	{1,2,3,6,8,9,10,12,13,14,15,16,17,18,19},
	{}];

POTENTIAL_ACT = [{5,10,11,12,13,17,19,23,25,27,30,31,35,36,39,41,42,43,46,47,48,56,57,58,61},
	{3,4,5,6,10,11,12,13,14,16,17,19,20,23,24,25,26,27,28,29,30,31,32,33,34,35,36,38,39,41,42,43,44,45,46,47,48,51,52,53,54,55,56,57,58,59,60,61},
	{5,9,10,11,12,13,14,15,17,18,19,21,23,25,26,27,28,30,31,32,34,35,36,39,41,42,43,46,47,48,51,52,53,54,56,57,58,60,61},
	{9,10,11,12,13,14,15,19,21,23,26,27,28,30,31,34,35,41,47,51,52,53,54,58,60},
	{9,10,11,13,14,15,19,21,23,26,27,28,30,31,41,47,51,52,54,58},
	{3,4,5,6,7,10,11,12,13,14,16,17,19,20,23,24,25,26,27,28,29,30,31,32,33,34,35,36,38,39,41,42,43,44,45,46,47,48,49,50,51,52,53,54,55,56,57,58,59,60,61},
	{2,5,6,9,12,14,15,16,17,19,20,21,22,25,27,28,30,35,37,39,42,43,45,46,49,50,52,54,55,56,57,60},
	{2,3,5,6,8,9,12,14,15,16,17,19,20,21,22,23,25,27,28,30,31,33,35,37,38,39,40,42,43,45,46,47,49,50,51,52,53,54,55,56,57,59,60,61},
	{3,4,5,6,10,11,12,13,14,16,17,19,20,23,24,25,26,27,28,29,30,31,32,33,34,35,36,38,39,41,42,43,44,45,46,47,48,51,52,53,54,55,56,57,58,59,60,61},
	{2,3,4,5,6,7,9,10,11,12,13,14,15,16,17,19,20,21,22,23,24,25,26,27,28,29,30,31,32,33,34,35,36,37,38,39,41,42,43,44,45,46,47,48,49,50,51,52,53,54,55,56,57,58,59,60,61},
	{2,5,6,8,9,12,14,15,16,17,19,20,21,22,23,25,27,28,30,33,35,37,38,39,40,42,43,45,46,49,50,51,52,54,55,56,57,60},
	{3,4,5,6,10,11,12,13,14,16,17,19,20,23,24,25,26,27,28,29,30,31,32,33,34,35,36,38,39,41,42,43,44,45,46,47,48,51,52,53,54,55,56,57,58,59,60,61},
	{5,10,11,12,13,17,19,23,25,27,30,31,35,36,39,41,42,43,46,47,48,56,57,58,61},
	{5,10,11,12,13,17,19,23,25,27,30,31,35,36,39,41,42,43,46,47,48,56,57,58,61},
	{2,3,4,5,6,7,8,9,10,11,12,13,14,15,16,17,19,20,21,22,23,24,25,26,27,28,29,30,31,32,33,34,35,36,37,38,39,40,41,42,43,44,45,46,47,48,49,50,51,52,53,54,55,56,57,58,59,60,61},
	{2,3,5,6,8,9,12,14,15,16,17,19,20,21,22,23,25,27,28,30,31,33,35,37,38,39,40,42,43,45,46,47,49,50,51,52,53,54,55,56,57,59,60,61},
	{2,3,4,5,6,7,8,9,10,11,12,13,14,15,16,17,19,20,21,22,23,24,25,26,27,28,29,30,31,32,33,34,35,36,37,38,39,40,41,42,43,44,45,46,47,48,49,50,51,52,53,54,55,56,57,58,59,60,61},
	{2,3,5,6,8,9,12,14,15,16,17,19,20,21,22,23,25,27,28,30,31,33,35,37,38,39,40,42,43,45,46,47,49,50,51,52,53,54,55,56,57,59,60,61},
	{5,10,11,12,13,17,19,23,25,27,30,31,35,36,39,41,42,43,46,47,48,56,57,58,61}];
